
<<< setup


<<< generate

Version identifier: 22.1.1.0 | 2022-11-28 | 9160aff4d
CPXPARAM_TimeLimit                               1800
Found incumbent of value 0.000000 after 0.00 sec. (0.00 ticks)
Tried aggregator 2 times.
MIP Presolve eliminated 10 rows and 10 columns.
MIP Presolve modified 20 coefficients.
Aggregator did 40 substitutions.
Reduced MIP has 61 rows, 105 columns, and 185 nonzeros.
Reduced MIP has 55 binaries, 10 generals, 0 SOSs, and 40 indicators.
Presolve time = 0.00 sec. (0.22 ticks)
Probing fixed 0 vars, tightened 10 bounds.
Probing time = 0.00 sec. (0.03 ticks)
Tried aggregator 2 times.
Detecting symmetries...
Aggregator did 10 substitutions.
Reduced MIP has 51 rows, 95 columns, and 165 nonzeros.
Reduced MIP has 55 binaries, 20 generals, 0 SOSs, and 40 indicators.
Presolve time = 0.00 sec. (0.20 ticks)
Probing time = 0.00 sec. (0.02 ticks)
Clique table members: 20.
MIP emphasis: balance optimality and feasibility.
MIP search method: dynamic search.
Parallel mode: deterministic, using up to 8 threads.
Root relaxation solution time = 0.00 sec. (0.06 ticks)

        Nodes                                         Cuts/
   Node  Left     Objective  IInf  Best Integer    Best Bound    ItCnt     Gap

*     0+    0                            0.0000       13.0000              --- 
*     0+    0                            4.0000       13.0000           225.00%
      0     0        8.0000    30        4.0000        8.0000        1  100.00%
      0     0        8.0000    28        4.0000      Cuts: 16       27  100.00%
      0     0        8.0000    18        4.0000      Cuts: 13       38  100.00%
*     0+    0                            8.0000        8.0000             0.00%
      0     0        cutoff              8.0000        8.0000       38    0.00%
      0     0        cutoff              8.0000        8.0000       38    0.00%
Elapsed time = 0.01 sec. (2.05 ticks, tree = 0.01 MB, solutions = 3)

Clique cuts applied:  18
Implied bound cuts applied:  10

Root node processing (before b&c):
  Real time             =    0.01 sec. (2.06 ticks)
Parallel b&c, 8 threads:
  Real time             =    0.00 sec. (0.00 ticks)
  Sync time (average)   =    0.00 sec.
  Wait time (average)   =    0.00 sec.
                          ------------
Total (root+branch&cut) =    0.01 sec. (2.06 ticks)

<<< solve


OBJECTIVE: 8

<<< post process


<<< done

